c FILE /home/rafael/Documents/HappySet/MIHS/inputs/happygen/output/graph_d_regular_k7_p0.2_v100_20241127_084057.txt
c SOURCE This is a d-regular graph formed for the happy graph colouring problem.
c DESCRIPTION It was generated using the problem generator of Rhyd Lewis
c
c GRAPH STATS
c Seed                             = 526110843
c Number of Nodes                  = 100
c Number of colours k              = 7
c Number of pre-assignments        = 20
c Degree of all vertices           = 6
c Density                          = 0.0606061
c 
c The degrees of nodes 1 to 100, respectively, are as follows 
c [6, 6, 6, 6, 6, 6, 6, 6, 6, 6, 6, 6, 6, 6, 6, 6, 6, 6, 6, 6, 6, 6, 6, 6, 6, 6, 
c  6, 6, 6, 6, 6, 6, 6, 6, 6, 6, 6, 6, 6, 6, 6, 6, 6, 6, 6, 6, 6, 6, 6, 6, 6, 
c  6, 6, 6, 6, 6, 6, 6, 6, 6, 6, 6, 6, 6, 6, 6, 6, 6, 6, 6, 6, 6, 6, 6, 6, 6, 
c  6, 6, 6, 6, 6, 6, 6, 6, 6, 6, 6, 6, 6, 6, 6, 6, 6, 6, 6, 6, 6, 6, 6, 6] 
c  
p edge 100 300 7
e 1 15
e 1 24
e 1 28
e 1 29
e 1 81
e 1 88
e 2 6
e 2 34
e 2 67
e 2 89
e 2 91
e 2 94
e 3 24
e 3 28
e 3 64
e 3 73
e 3 76
e 3 78
e 4 27
e 4 29
e 4 40
e 4 44
e 4 54
e 4 85
e 5 21
e 5 23
e 5 41
e 5 44
e 5 45
e 5 77
e 6 12
e 6 15
e 6 19
e 6 36
e 6 80
e 7 21
e 7 25
e 7 48
e 7 50
e 7 71
e 7 99
e 8 9
e 8 32
e 8 33
e 8 43
e 8 57
e 8 80
e 9 20
e 9 22
e 9 54
e 9 75
e 9 88
e 10 20
e 10 37
e 10 46
e 10 65
e 10 76
e 10 92
e 11 22
e 11 31
e 11 36
e 11 49
e 11 88
e 11 100
e 12 51
e 12 56
e 12 70
e 12 77
e 12 90
e 13 22
e 13 73
e 13 75
e 13 81
e 13 82
e 13 89
e 14 49
e 14 57
e 14 71
e 14 80
e 14 87
e 14 88
e 15 19
e 15 39
e 15 43
e 15 73
e 16 24
e 16 40
e 16 57
e 16 59
e 16 77
e 16 98
e 17 36
e 17 42
e 17 61
e 17 66
e 17 68
e 17 91
e 18 21
e 18 29
e 18 34
e 18 48
e 18 83
e 18 96
e 19 31
e 19 53
e 19 67
e 19 70
e 20 48
e 20 65
e 20 93
e 20 97
e 21 65
e 21 70
e 21 90
e 22 31
e 22 49
e 22 55
e 23 43
e 23 55
e 23 66
e 23 77
e 23 87
e 24 30
e 24 36
e 24 61
e 25 39
e 25 45
e 25 48
e 25 86
e 25 94
e 26 33
e 26 36
e 26 57
e 26 68
e 26 81
e 26 95
e 27 53
e 27 55
e 27 72
e 27 90
e 27 100
e 28 44
e 28 50
e 28 58
e 28 82
e 29 51
e 29 52
e 29 97
e 30 34
e 30 43
e 30 47
e 30 62
e 30 100
e 31 32
e 31 55
e 31 96
e 32 41
e 32 46
e 32 53
e 32 92
e 33 41
e 33 51
e 33 62
e 33 84
e 34 42
e 34 62
e 34 89
e 35 49
e 35 75
e 35 84
e 35 91
e 35 96
e 35 99
e 36 86
e 37 44
e 37 54
e 37 61
e 37 67
e 37 93
e 38 58
e 38 63
e 38 67
e 38 90
e 38 95
e 38 100
e 39 40
e 39 60
e 39 63
e 39 80
e 40 49
e 40 79
e 40 95
e 41 47
e 41 53
e 41 76
e 42 57
e 42 60
e 42 82
e 42 99
e 43 58
e 43 83
e 44 95
e 44 97
e 45 78
e 45 83
e 45 84
e 45 98
e 46 54
e 46 62
e 46 81
e 46 89
e 47 60
e 47 64
e 47 92
e 47 95
e 48 63
e 48 94
e 49 96
e 50 51
e 50 64
e 50 66
e 50 82
e 51 71
e 51 83
e 52 58
e 52 61
e 52 66
e 52 72
e 52 79
e 53 54
e 53 87
e 54 61
e 55 79
e 55 89
e 56 64
e 56 72
e 56 77
e 56 80
e 56 87
e 57 99
e 58 84
e 58 97
e 59 63
e 59 72
e 59 74
e 59 75
e 59 84
e 60 71
e 60 78
e 60 79
e 61 82
e 62 69
e 62 85
e 63 78
e 63 90
e 64 75
e 64 93
e 65 70
e 65 85
e 65 86
e 66 67
e 66 91
e 67 73
e 68 85
e 68 86
e 68 87
e 68 98
e 69 74
e 69 76
e 69 78
e 69 88
e 69 89
e 70 72
e 70 98
e 71 73
e 71 91
e 72 98
e 73 94
e 74 76
e 74 92
e 74 97
e 74 100
e 75 86
e 76 78
e 77 81
e 79 90
e 79 99
e 80 93
e 81 83
e 82 88
e 83 93
e 84 94
e 85 86
e 85 94
e 87 92
e 91 92
e 93 98
e 95 96
e 96 97
e 99 100
n 5 4
n 12 6
n 18 1
n 25 2
n 30 3
n 31 5
n 33 4
n 36 5
n 44 4
n 46 1
n 47 3
n 52 6
n 55 5
n 56 6
n 61 6
n 63 7
n 67 5
n 72 6
n 81 1
n 85 4
